  6	57
 14
  0	 17	 29	  9	 74	 66	 19	 86	 52	 41	 76	 98	109	115	
 24
  0	 50	  2	 54	  8	107	 21	 65	111	 78	  6	 63	  5	 28	 59	 62	 32	 23	 85	 16	 80	 89	 73	115	
 16
  0	 37	 26	 94	 53	110	  4	 83	 24	 81	 44	 25	 61	 82	101	115	
 22
  0	 45	 12	 27	 31	 49	102	 84	 18	 14	 57	 75	 88	 71	106	114	 69	 33	 34	 90	 91	115	
 24
  0	 39	 35	 96	 30	 46	 92	 87	103	 42	 20	 10	 99	 15	 67	 72	 77	 55	 40	 51	 97	112	108	115	
 26
  0	 13	 56	113	 43	 36	 93	100	  7	 48	 70	 64	 22	 47	 11	105	  1	  3	 68	104	 79	 58	 38	 60	 95	115	
